Route 1: 0 44 39 88 76 36 48 0
Route 2: 0 13 10 97 25 66 33 35 0
Route 3: 0 93 32 78 89 46 4 16 55 74 90 100 0
Route 4: 0 21 26 50 96 85 22 43 19 53 20 0
Route 5: 0 27 5 17 54 92 67 0
Route 6: 0 52 98 34 86 23 59 95 24 14 79 0
Route 7: 0 70 45 61 81 69 31 62 0
Route 8: 0 9 64 65 56 71 30 0
Route 9: 0 77 82 41 2 91 18 49 0
Route 10: 0 6 15 42 29 83 1 7 11 73 37 3 0
Route 11: 0 51 60 40 12 84 47 0
Route 12: 0 94 75 28 58 87 38 72 68 80 8 0
Route 13: 0 63 57 99 0
